clingo version 5.6.2
Reading from ...gen_asp_scripts/ijp_expt_cases-1024.dl
Solving...
Progression : [1;inf]
Progression : [2;inf]
Answer: 1
res(2) witness(1,5,2,6) witness(3,1,4,5) witness(5,1,6,5) number_of_witnesses(3)
Optimization: 3
OPTIMUM FOUND

Models       : 1
  Optimum    : yes
Optimization : 3
Calls        : 1
Time         : 670.966s (Solving: 632.97s 1st Model: 242.53s Unsat: 390.44s)
CPU Time     : 34800.977s
Threads      : 64       (Winner: 53)
